(declare-fun temp930_1 () (_ BitVec 64))
(declare-fun var461925 () (_ BitVec 64))
(declare-fun temp930_2 () (_ BitVec 64))
(declare-fun var724069 () (_ BitVec 64))
(declare-fun temp930_3 () (_ BitVec 64))
(declare-fun temp930_4 () (_ BitVec 64))
(declare-fun var69380 () (_ BitVec 64))
(declare-fun k!0 () Bool)
(declare-fun ARGNAME_rtol_NAMEEND () (_ BitVec 64))
(declare-fun temp930_5 () (_ BitVec 64))
(declare-fun ARGNAME_atol_NAMEEND () (_ BitVec 64))
(declare-fun var69401 () (_ BitVec 64))
(declare-fun temp930_6 () (_ BitVec 64))
(declare-fun temp930_7 () (_ BitVec 64))
(declare-fun temp930_8 () (_ BitVec 64))
(declare-fun ARGNAME_input_NAMEEND_DIMSIZE
             ()
             (Array (_ BitVec 64) (_ BitVec 64)))
(declare-fun temp930_9 () (_ BitVec 64))
(declare-fun temp930_10 () (_ BitVec 64))
(declare-fun temp930_11 () (_ BitVec 64))
(declare-fun temp930_12 () (_ BitVec 64))
(declare-fun temp930_13 () (_ BitVec 64))
(declare-fun temp930_14 () (_ BitVec 64))
(declare-fun temp930_15 () (_ BitVec 64))
(declare-fun temp930_16 () (_ BitVec 64))
(declare-fun temp930_17 () (_ BitVec 64))
(declare-fun temp930_18 () (_ BitVec 64))
(declare-fun temp930_19 () (_ BitVec 64))
(declare-fun temp930_20 () (_ BitVec 64))
(declare-fun temp930_21 () (_ BitVec 64))
(declare-fun temp930_22 () (_ BitVec 64))
(declare-fun temp930_23 () (_ BitVec 64))
(declare-fun temp930_24 () (_ BitVec 64))
(declare-fun temp930_25 () (_ BitVec 64))
(declare-fun temp930_26 () (_ BitVec 64))
(declare-fun ARGNAME_other_NAMEEND_DIMSIZE
             ()
             (Array (_ BitVec 64) (_ BitVec 64)))
(declare-fun temp930_27 () (_ BitVec 64))
(declare-fun temp930_28 () (_ BitVec 64))
(declare-fun temp930_29 () (_ BitVec 64))
(declare-fun temp930_30 () (_ BitVec 64))
(declare-fun temp930_31 () (_ BitVec 64))
(declare-fun temp930_32 () (_ BitVec 64))
(declare-fun temp930_33 () (_ BitVec 64))
(declare-fun temp930_34 () (_ BitVec 64))
(declare-fun temp930_35 () (_ BitVec 64))
(declare-fun temp930_36 () (_ BitVec 64))
(declare-fun temp930_37 () (_ BitVec 64))
(declare-fun temp930_38 () (_ BitVec 64))
(declare-fun temp930_39 () (_ BitVec 64))
(declare-fun temp930_40 () (_ BitVec 64))
(declare-fun temp930_41 () (_ BitVec 64))
(declare-fun temp930_42 () (_ BitVec 64))
(declare-fun temp930_43 () (_ BitVec 64))
(declare-fun temp930_44 () (_ BitVec 64))
(declare-fun temp930_45 () (_ BitVec 64))
(declare-fun temp930_46 () (_ BitVec 64))
(declare-fun temp930_47 () (_ BitVec 64))
(declare-fun temp930_48 () (_ BitVec 64))
(declare-fun temp930_49 () (_ BitVec 64))
(declare-fun temp930_50 () (_ BitVec 64))
(declare-fun temp930_51 () (_ BitVec 64))
(declare-fun temp930_52 () (_ BitVec 64))
(declare-fun temp930_53 () (_ BitVec 64))
(declare-fun temp930_54 () (_ BitVec 64))
(declare-fun temp930_55 () (_ BitVec 64))
(declare-fun temp930_56 () (_ BitVec 64))
(declare-fun temp930_57 () (_ BitVec 64))
(declare-fun temp930_58 () (_ BitVec 64))
(declare-fun temp930_59 () (_ BitVec 64))
(declare-fun temp930_60 () (_ BitVec 64))
(declare-fun temp930_61 () (_ BitVec 64))
(declare-fun temp930_62 () (_ BitVec 64))
(declare-fun temp930_63 () (_ BitVec 64))
(declare-fun temp930_64 () (_ BitVec 64))
(declare-fun temp930_65 () (_ BitVec 64))
(declare-fun temp930_66 () (_ BitVec 64))
(declare-fun temp930_67 () (_ BitVec 64))
(declare-fun temp930_68 () (_ BitVec 64))
(declare-fun temp930_69 () (_ BitVec 64))
(declare-fun temp930_70 () (_ BitVec 64))
(declare-fun temp930_71 () (_ BitVec 64))
(declare-fun temp930_72 () (_ BitVec 64))
(declare-fun temp930_73 () (_ BitVec 64))
(declare-fun temp930_74 () (_ BitVec 64))
(declare-fun temp930_75 () (_ BitVec 64))
(declare-fun temp930_76 () (_ BitVec 64))
(declare-fun temp930_77 () (_ BitVec 64))
(declare-fun temp930_78 () (_ BitVec 64))
(declare-fun ARGNAME_other_NAMEEND_DIM () (_ BitVec 64))
(declare-fun temp930_79 () (_ BitVec 64))
(declare-fun ARGNAME_equal_nan_NAMEEND () (_ BitVec 64))
(declare-fun temp930_80 () (_ BitVec 64))
(declare-fun var1444989 () (_ BitVec 64))
(declare-fun temp930_81 () (_ BitVec 64))
(declare-fun var69543 () (_ BitVec 64))
(declare-fun temp930_82 () (_ BitVec 64))
(declare-fun var69545 () (_ BitVec 64))
(declare-fun var69546 () (_ BitVec 64))
(declare-fun temp930_83 () (_ BitVec 64))
(declare-fun temp930_84 () (_ BitVec 64))
(declare-fun var2298158 () (_ BitVec 64))
(declare-fun temp930_85 () (_ BitVec 64))
(declare-fun var2298159 () (_ BitVec 64))
(assert (= temp930_1 #x0000000000080000))
(assert (= var461925 temp930_1))
(assert (= temp930_2 #x0000000000080000))
(assert (= var724069 temp930_2))
(assert (= temp930_3 #x0000000000000000))
(assert (= var69380
   (ite (bvslt ARGNAME_rtol_NAMEEND temp930_3)
        #x0000000000000001
        #x0000000000000000)))
(assert (= temp930_4 #x0000000000000000))
(assert (= var69380 temp930_4))
(assert (= temp930_5 #x0000000000000000))
(assert (= var69401
   (ite (bvslt ARGNAME_atol_NAMEEND temp930_5)
        #x0000000000000001
        #x0000000000000000)))
(assert (= temp930_6 #x0000000000000000))
(assert (= var69401 temp930_6))
(assert (= temp930_7 #x0000000000000000))
(assert (= temp930_8 temp930_7))
(assert (= temp930_9 (select ARGNAME_input_NAMEEND_DIMSIZE temp930_8)))
(assert (= temp930_10 #x0000000000000001))
(assert (= temp930_11 temp930_10))
(assert (= temp930_12 (select ARGNAME_input_NAMEEND_DIMSIZE temp930_11)))
(assert (= temp930_13 #x0000000000000002))
(assert (= temp930_14 temp930_13))
(assert (= temp930_15 (select ARGNAME_input_NAMEEND_DIMSIZE temp930_14)))
(assert (= temp930_16 #x0000000000000003))
(assert (= temp930_17 temp930_16))
(assert (= temp930_18 (select ARGNAME_input_NAMEEND_DIMSIZE temp930_17)))
(assert (= temp930_19 #x0000000000000004))
(assert (= temp930_20 temp930_19))
(assert (= temp930_21 (select ARGNAME_input_NAMEEND_DIMSIZE temp930_20)))
(assert (= temp930_22 #x0000000000000005))
(assert (= temp930_23 temp930_22))
(assert (= temp930_24 (select ARGNAME_input_NAMEEND_DIMSIZE temp930_23)))
(assert (= temp930_25 #x0000000000000000))
(assert (= temp930_26 temp930_25))
(assert (= temp930_27 (select ARGNAME_other_NAMEEND_DIMSIZE temp930_26)))
(assert (= temp930_28 #x0000000000000001))
(assert (= temp930_29 temp930_28))
(assert (= temp930_30 (select ARGNAME_other_NAMEEND_DIMSIZE temp930_29)))
(assert (= temp930_31 #x0000000000000002))
(assert (= temp930_32 temp930_31))
(assert (= temp930_33 (select ARGNAME_other_NAMEEND_DIMSIZE temp930_32)))
(assert (= temp930_34 #x0000000000000003))
(assert (= temp930_35 temp930_34))
(assert (= temp930_36 (select ARGNAME_other_NAMEEND_DIMSIZE temp930_35)))
(assert (= temp930_37 #x0000000000000004))
(assert (= temp930_38 temp930_37))
(assert (= temp930_39 (select ARGNAME_other_NAMEEND_DIMSIZE temp930_38)))
(assert (= temp930_40 #x0000000000000005))
(assert (= temp930_41 temp930_40))
(assert (= temp930_42 (select ARGNAME_other_NAMEEND_DIMSIZE temp930_41)))
(assert (= temp930_43 temp930_11))
(assert (= temp930_44 (select ARGNAME_other_NAMEEND_DIMSIZE temp930_43)))
(assert (= temp930_45 temp930_14))
(assert (= temp930_46 (select ARGNAME_other_NAMEEND_DIMSIZE temp930_45)))
(assert (= temp930_47 temp930_17))
(assert (= temp930_48 (select ARGNAME_other_NAMEEND_DIMSIZE temp930_47)))
(assert (= temp930_49 temp930_20))
(assert (= temp930_50 (select ARGNAME_other_NAMEEND_DIMSIZE temp930_49)))
(assert (= temp930_51 temp930_23))
(assert (= temp930_52 (select ARGNAME_other_NAMEEND_DIMSIZE temp930_51)))
(assert (= temp930_53 temp930_8))
(assert (= temp930_54 (select ARGNAME_other_NAMEEND_DIMSIZE temp930_53)))
(assert (= temp930_55 temp930_26))
(assert (= temp930_56 (select ARGNAME_input_NAMEEND_DIMSIZE temp930_55)))
(assert (= temp930_57 temp930_29))
(assert (= temp930_58 (select ARGNAME_input_NAMEEND_DIMSIZE temp930_57)))
(assert (= temp930_59 temp930_32))
(assert (= temp930_60 (select ARGNAME_input_NAMEEND_DIMSIZE temp930_59)))
(assert (= temp930_61 temp930_35))
(assert (= temp930_62 (select ARGNAME_input_NAMEEND_DIMSIZE temp930_61)))
(assert (= temp930_63 temp930_38))
(assert (= temp930_64 (select ARGNAME_input_NAMEEND_DIMSIZE temp930_63)))
(assert (= temp930_65 temp930_41))
(assert (= temp930_66 (select ARGNAME_input_NAMEEND_DIMSIZE temp930_65)))
(assert (= temp930_67 temp930_43))
(assert (= temp930_68 (select ARGNAME_input_NAMEEND_DIMSIZE temp930_67)))
(assert (= temp930_69 temp930_45))
(assert (= temp930_70 (select ARGNAME_input_NAMEEND_DIMSIZE temp930_69)))
(assert (= temp930_71 temp930_47))
(assert (= temp930_72 (select ARGNAME_input_NAMEEND_DIMSIZE temp930_71)))
(assert (= temp930_73 temp930_49))
(assert (= temp930_74 (select ARGNAME_input_NAMEEND_DIMSIZE temp930_73)))
(assert (= temp930_75 temp930_51))
(assert (= temp930_76 (select ARGNAME_input_NAMEEND_DIMSIZE temp930_75)))
(assert (= temp930_77 temp930_53))
(assert (= temp930_78 (select ARGNAME_input_NAMEEND_DIMSIZE temp930_77)))
(assert (= (and true
        (= temp930_44 temp930_12)
        (= temp930_46 temp930_15)
        (= temp930_48 temp930_18)
        (= temp930_50 temp930_21)
        (= temp930_52 temp930_24)
        (= temp930_54 temp930_9)
        (= temp930_56 temp930_27)
        (= temp930_58 temp930_30)
        (= temp930_60 temp930_33)
        (= temp930_62 temp930_36)
        (= temp930_64 temp930_39)
        (= temp930_66 temp930_42)
        (= temp930_68 temp930_44)
        (= temp930_70 temp930_46)
        (= temp930_72 temp930_48)
        (= temp930_74 temp930_50)
        (= temp930_76 temp930_52)
        (= temp930_78 temp930_54))
   true))
(assert (= ARGNAME_other_NAMEEND_DIM ARGNAME_other_NAMEEND_DIM))
(assert (= temp930_79 #x0000000000000001))
(assert (= ARGNAME_equal_nan_NAMEEND temp930_79))
(assert (= temp930_80 #x0000000009c00400))
(assert (= var1444989 temp930_80))
(assert (= temp930_81 #x0000000000000000))
(assert (= var69543
   (ite (= ARGNAME_rtol_NAMEEND temp930_81)
        #x0000000000000001
        #x0000000000000000)))
(assert (= temp930_82 #x0000000000000000))
(assert (= var69545
   (ite (= ARGNAME_atol_NAMEEND temp930_82)
        #x0000000000000001
        #x0000000000000000)))
(assert (= var69546 (bvand var69543 var69545)))
(assert (= temp930_83 #x0000000000000000))
(assert (= var69546 temp930_83))
(assert (= temp930_84 #x0000000000000000))
(assert (= var2298158 temp930_84))
(assert (= temp930_85 #x0000000000000000))
(assert (= var2298159 temp930_85))
(model-add temp930_1 () (_ BitVec 64) #x0000000000080000)
(model-add var461925 () (_ BitVec 64) #x0000000000080000)
(model-add temp930_2 () (_ BitVec 64) #x0000000000080000)
(model-add var724069 () (_ BitVec 64) #x0000000000080000)
(model-add temp930_3 () (_ BitVec 64) #x0000000000000000)
(model-add temp930_4 () (_ BitVec 64) #x0000000000000000)
(model-add var69380 () (_ BitVec 64) #x0000000000000000)
(model-del k!0)
(model-add ARGNAME_rtol_NAMEEND
           ()
           (_ BitVec 64)
           (ite (or k!0 (= #x0000000000000000 #x8000000000000000))
                #x0000000000000000
                (bvsub #x0000000000000000 #x0000000000000001)))






